0 7848274
2 7763793
3 7761215
4 7744704
8 7740434
12 7737067
16 7737034
18 7735162
32 7733718
35 7724086
36 7722343
44 7722161
49 7665495
53 7650641
57 7614759
58 7614297
60 7519787
61 7400317
62 7398965
64 7398010
67 7397278
69 7396697
70 7375162
78 7343234
82 7321732
86 7319704
87 7316353
94 7291302
95 7277537
98 7260195
99 7242098
101 7238823
104 7236917
136 7230378
164 7224335
165 7203173
179 7201001
191 7193940
228 7190621
230 7190327
234 7190219
239 7181673
240 7179776
246 7178164
277 7177534
347 7176884
358 7176827
367 7176556
374 7176017
430 7171675
464 7170770
486 7170600
510 7170509
544 7169256
594 7168371
595 7166996
695 7165498
725 7164788
822 7164599
958 7163978
1621 7159207
1752 7158752
